20	3
7	7	8	
0	0	0	0	10	2	3	5	6	7	12	13	14	16	19	
10	1	2	2	1	11	
923	3	2	2	2	4	9	
735	1	2	2	2	15	18	
16	3	2	2	1	20	
11	1	2	2	1	20	
783	3	2	2	1	8	
14	2	2	2	2	11	10	
16	2	2	2	1	15	
664	2	2	2	1	20	
718	2	2	2	1	17	
13	1	2	2	1	20	
1018	3	2	2	1	20	
610	3	2	2	1	20	
12	2	2	2	1	20	
16	3	2	2	1	20	
17	2	2	2	1	20	
1054	2	2	2	1	20	
18	2	2	2	1	20	
0	0	0	0	0	